NAME 
ROWS
 N  OBJ
 L  R0      
 E  R1      
 E  R2      
 E  R3      
 E  R4      
 E  R5      
 E  R6      
 E  R7      
 E  R8      
 E  R9      
 E  R10     
 E  R11     
 E  R12     
 E  R13     
 E  R14     
 E  R15     
COLUMNS
    MARKER    'MARKER'                 'INTORG'
    I0(6)     OBJ       27
    I0(6)     R0        -136
    I0(6)     R1        17
    I0(6)     R4        16
    I0(6)     R5        2
    I0(6)     R9        15
    I0(6)     R15       1
    I1(8)     OBJ       -60
    I1(8)     R0        20
    I1(8)     R1        7
    I1(8)     R3        19
    I1(8)     R5        2
    I1(8)     R7        6
    I1(8)     R8        1
    I1(8)     R9        19
    I1(8)     R15       1
    I2(7)     OBJ       91
    I2(7)     R0        48
    I2(7)     R2        19
    I2(7)     R4        2
    I2(7)     R6        12
    I2(7)     R8        18
    I2(7)     R9        15
    I2(7)     R15       1
    I3(5)     OBJ       121
    I3(5)     R0        -64
    I3(5)     R1        19
    I3(5)     R7        18
    I3(5)     R8        11
    I3(5)     R15       1
    I4(5)     OBJ       -165
    I4(5)     R0        61
    I4(5)     R1        3
    I4(5)     R2        14
    I4(5)     R5        -1
    I4(5)     R15       1
    I5(8)     OBJ       -47
    I5(8)     R0        8
    I5(8)     R2        16
    I5(8)     R4        19
    I5(8)     R6        11
    I5(8)     R7        6
    I5(8)     R8        4
    I5(8)     R9        15
    I5(8)     R15       1
    I6(9)     OBJ       127
    I6(9)     R0        -200
    I6(9)     R1        1
    I6(9)     R2        5
    I6(9)     R3        19
    I6(9)     R4        -1
    I6(9)     R5        9
    I6(9)     R7        18
    I6(9)     R8        16
    I6(9)     R15       1
    I7(6)     OBJ       -12
    I7(6)     R0        42
    I7(6)     R1        8
    I7(6)     R2        18
    I7(6)     R5        15
    I7(6)     R8        7
    I7(6)     R15       1
    I8(5)     OBJ       -148
    I8(5)     R0        113
    I8(5)     R4        6
    I8(5)     R7        8
    I8(5)     R9        13
    I8(5)     R15       1
    MARKER    'MARKER'                 'INTEND'
    C9(6)     OBJ       1
    C9(6)     R0        -8
    C9(6)     R1        17
    C9(6)     R7        7
    C9(6)     R8        1
    C9(6)     R9        3
    C9(6)     R12       5
    C10(6)    OBJ       7
    C10(6)    R0        -2
    C10(6)    R2        3
    C10(6)    R4        14
    C10(6)    R7        12
    C10(6)    R8        4
    C10(6)    R9        14
    C11(10)   OBJ       9
    C11(10)   R0        -7
    C11(10)   R1        9
    C11(10)   R3        5
    C11(10)   R5        19
    C11(10)   R6        4
    C11(10)   R7        11
    C11(10)   R9        15
    C11(10)   R11       15
    C11(10)   R13       -1
    C11(10)   R14       12
    C12(7)    OBJ       -7
    C12(7)    R0        -6
    C12(7)    R1        15
    C12(7)    R2        4
    C12(7)    R8        13
    C12(7)    R10       4
    C12(7)    R12       -1
    C12(7)    R13       11
    C13(9)    OBJ       -5
    C13(9)    R0        -10
    C13(9)    R1        1
    C13(9)    R4        6
    C13(9)    R6        1
    C13(9)    R9        11
    C13(9)    R10       5
    C13(9)    R12       7
    C13(9)    R13       5
    C13(9)    R14       10
    C14(8)    OBJ       -3
    C14(8)    R0        3
    C14(8)    R1        7
    C14(8)    R6        19
    C14(8)    R9        13
    C14(8)    R10       12
    C14(8)    R11       15
    C14(8)    R12       2
    C14(8)    R13       6
    C15(1)    R1        1
    C16(1)    R2        1
    C17(1)    R3        1
    C18(1)    R4        1
    C19(1)    R5        1
    C20(1)    R6        1
    C21(1)    R7        1
    C22(1)    R8        1
    C23(1)    R9        1
    C24(1)    R10       1
    C25(1)    R11       1
    C26(1)    R12       1
    C27(1)    R13       1
    C28(1)    R14       1
    C29(1)    R15       1
RHS
    RHS1      R0        164.6
    RHS1      R1        62
    RHS1      R2        83
    RHS1      R3        98
    RHS1      R4        85
    RHS1      R5        84
    RHS1      R6        68
    RHS1      R7        88
    RHS1      R8        90
    RHS1      R9        68
    RHS1      R10       57
    RHS1      R11       99
    RHS1      R12       67
    RHS1      R13       78
    RHS1      R14       81
    RHS1      R15       3
BOUNDS
 UP BND1      I0(6)     2
 UP BND1      I1(8)     2
 UP BND1      I2(7)     2
 UP BND1      I3(5)     2
 UP BND1      I4(5)     2
 UP BND1      I5(8)     2
 UP BND1      I6(9)     2
 UP BND1      I7(6)     2
 UP BND1      I8(5)     2
ENDATA
